p cnf 976 1135
c ind 1 2 3 4 5 6 7 8 9 10 11 12 13 14 15 16 17 18 19 20 21 22 23 24 25 26 27 0
-1 1 28 0
-4 1 29 0
-7 1 30 0
-1 10 31 0
-4 10 32 0
-7 10 33 0
-1 19 34 0
-4 19 35 0
-7 19 36 0
-1 4 37 0
-4 4 38 0
-7 4 39 0
-1 13 40 0
-4 13 41 0
-7 13 42 0
-1 22 43 0
-4 22 44 0
-7 22 45 0
-1 7 46 0
-4 7 47 0
-7 7 48 0
-1 16 49 0
-4 16 50 0
-7 16 51 0
-1 25 52 0
-4 25 53 0
-7 25 54 0
-10 1 55 0
-13 1 56 0
-16 1 57 0
-10 10 58 0
-13 10 59 0
-16 10 60 0
-10 19 61 0
-13 19 62 0
-16 19 63 0
-10 4 64 0
-13 4 65 0
-16 4 66 0
-10 13 67 0
-13 13 68 0
-16 13 69 0
-10 22 70 0
-13 22 71 0
-16 22 72 0
-10 7 73 0
-13 7 74 0
-16 7 75 0
-10 16 76 0
-13 16 77 0
-16 16 78 0
-10 25 79 0
-13 25 80 0
-16 25 81 0
-19 1 82 0
-22 1 83 0
-25 1 84 0
-19 10 85 0
-22 10 86 0
-25 10 87 0
-19 19 88 0
-22 19 89 0
-25 19 90 0
-19 4 91 0
-22 4 92 0
-25 4 93 0
-19 13 94 0
-22 13 95 0
-25 13 96 0
-19 22 97 0
-22 22 98 0
-25 22 99 0
-19 7 100 0
-22 7 101 0
-25 7 102 0
-19 16 103 0
-22 16 104 0
-25 16 105 0
-19 25 106 0
-22 25 107 0
-25 25 108 0
-2 2 28 0
-5 2 29 0
-8 2 30 0
-2 11 31 0
-5 11 32 0
-8 11 33 0
-2 20 34 0
-5 20 35 0
-8 20 36 0
-2 5 37 0
-5 5 38 0
-8 5 39 0
-2 14 40 0
-5 14 41 0
-8 14 42 0
-2 23 43 0
-5 23 44 0
-8 23 45 0
-2 8 46 0
-5 8 47 0
-8 8 48 0
-2 17 49 0
-5 17 50 0
-8 17 51 0
-2 26 52 0
-5 26 53 0
-8 26 54 0
-11 2 55 0
-14 2 56 0
-17 2 57 0
-11 11 58 0
-14 11 59 0
-17 11 60 0
-11 20 61 0
-14 20 62 0
-17 20 63 0
-11 5 64 0
-14 5 65 0
-17 5 66 0
-11 14 67 0
-14 14 68 0
-17 14 69 0
-11 23 70 0
-14 23 71 0
-17 23 72 0
-11 8 73 0
-14 8 74 0
-17 8 75 0
-11 17 76 0
-14 17 77 0
-17 17 78 0
-11 26 79 0
-14 26 80 0
-17 26 81 0
-20 2 82 0
-23 2 83 0
-26 2 84 0
-20 11 85 0
-23 11 86 0
-26 11 87 0
-20 20 88 0
-23 20 89 0
-26 20 90 0
-20 5 91 0
-23 5 92 0
-26 5 93 0
-20 14 94 0
-23 14 95 0
-26 14 96 0
-20 23 97 0
-23 23 98 0
-26 23 99 0
-20 8 100 0
-23 8 101 0
-26 8 102 0
-20 17 103 0
-23 17 104 0
-26 17 105 0
-20 26 106 0
-23 26 107 0
-26 26 108 0
-3 3 28 0
-6 3 29 0
-9 3 30 0
-3 12 31 0
-6 12 32 0
-9 12 33 0
-3 21 34 0
-6 21 35 0
-9 21 36 0
-3 6 37 0
-6 6 38 0
-9 6 39 0
-3 15 40 0
-6 15 41 0
-9 15 42 0
-3 24 43 0
-6 24 44 0
-9 24 45 0
-3 9 46 0
-6 9 47 0
-9 9 48 0
-3 18 49 0
-6 18 50 0
-9 18 51 0
-3 27 52 0
-6 27 53 0
-9 27 54 0
-12 3 55 0
-15 3 56 0
-18 3 57 0
-12 12 58 0
-15 12 59 0
-18 12 60 0
-12 21 61 0
-15 21 62 0
-18 21 63 0
-12 6 64 0
-15 6 65 0
-18 6 66 0
-12 15 67 0
-15 15 68 0
-18 15 69 0
-12 24 70 0
-15 24 71 0
-18 24 72 0
-12 9 73 0
-15 9 74 0
-18 9 75 0
-12 18 76 0
-15 18 77 0
-18 18 78 0
-12 27 79 0
-15 27 80 0
-18 27 81 0
-21 3 82 0
-24 3 83 0
-27 3 84 0
-21 12 85 0
-24 12 86 0
-27 12 87 0
-21 21 88 0
-24 21 89 0
-27 21 90 0
-21 6 91 0
-24 6 92 0
-27 6 93 0
-21 15 94 0
-24 15 95 0
-27 15 96 0
-21 24 97 0
-24 24 98 0
-27 24 99 0
-21 9 100 0
-24 9 101 0
-27 9 102 0
-21 18 103 0
-24 18 104 0
-27 18 105 0
-21 27 106 0
-24 27 107 0
-27 27 108 0
-1 -1 -28 0
-1 -4 -29 0
-1 -7 -30 0
-4 -10 -28 0
-4 -13 -29 0
-4 -16 -30 0
-7 -19 -28 0
-7 -22 -29 0
-7 -25 -30 0
-10 -1 -31 0
-10 -4 -32 0
-10 -7 -33 0
-13 -10 -31 0
-13 -13 -32 0
-13 -16 -33 0
-16 -19 -31 0
-16 -22 -32 0
-16 -25 -33 0
-19 -1 -34 0
-19 -4 -35 0
-19 -7 -36 0
-22 -10 -34 0
-22 -13 -35 0
-22 -16 -36 0
-25 -19 -34 0
-25 -22 -35 0
-25 -25 -36 0
-1 -2 -37 0
-1 -5 -38 0
-1 -8 -39 0
-4 -11 -37 0
-4 -14 -38 0
-4 -17 -39 0
-7 -20 -37 0
-7 -23 -38 0
-7 -26 -39 0
-10 -2 -40 0
-10 -5 -41 0
-10 -8 -42 0
-13 -11 -40 0
-13 -14 -41 0
-13 -17 -42 0
-16 -20 -40 0
-16 -23 -41 0
-16 -26 -42 0
-19 -2 -43 0
-19 -5 -44 0
-19 -8 -45 0
-22 -11 -43 0
-22 -14 -44 0
-22 -17 -45 0
-25 -20 -43 0
-25 -23 -44 0
-25 -26 -45 0
-1 -3 -46 0
-1 -6 -47 0
-1 -9 -48 0
-4 -12 -46 0
-4 -15 -47 0
-4 -18 -48 0
-7 -21 -46 0
-7 -24 -47 0
-7 -27 -48 0
-10 -3 -49 0
-10 -6 -50 0
-10 -9 -51 0
-13 -12 -49 0
-13 -15 -50 0
-13 -18 -51 0
-16 -21 -49 0
-16 -24 -50 0
-16 -27 -51 0
-19 -3 -52 0
-19 -6 -53 0
-19 -9 -54 0
-22 -12 -52 0
-22 -15 -53 0
-22 -18 -54 0
-25 -21 -52 0
-25 -24 -53 0
-25 -27 -54 0
-2 -1 -55 0
-2 -4 -56 0
-2 -7 -57 0
-5 -10 -55 0
-5 -13 -56 0
-5 -16 -57 0
-8 -19 -55 0
-8 -22 -56 0
-8 -25 -57 0
-11 -1 -58 0
-11 -4 -59 0
-11 -7 -60 0
-14 -10 -58 0
-14 -13 -59 0
-14 -16 -60 0
-17 -19 -58 0
-17 -22 -59 0
-17 -25 -60 0
-20 -1 -61 0
-20 -4 -62 0
-20 -7 -63 0
-23 -10 -61 0
-23 -13 -62 0
-23 -16 -63 0
-26 -19 -61 0
-26 -22 -62 0
-26 -25 -63 0
-2 -2 -64 0
-2 -5 -65 0
-2 -8 -66 0
-5 -11 -64 0
-5 -14 -65 0
-5 -17 -66 0
-8 -20 -64 0
-8 -23 -65 0
-8 -26 -66 0
-11 -2 -67 0
-11 -5 -68 0
-11 -8 -69 0
-14 -11 -67 0
-14 -14 -68 0
-14 -17 -69 0
-17 -20 -67 0
-17 -23 -68 0
-17 -26 -69 0
-20 -2 -70 0
-20 -5 -71 0
-20 -8 -72 0
-23 -11 -70 0
-23 -14 -71 0
-23 -17 -72 0
-26 -20 -70 0
-26 -23 -71 0
-26 -26 -72 0
-2 -3 -73 0
-2 -6 -74 0
-2 -9 -75 0
-5 -12 -73 0
-5 -15 -74 0
-5 -18 -75 0
-8 -21 -73 0
-8 -24 -74 0
-8 -27 -75 0
-11 -3 -76 0
-11 -6 -77 0
-11 -9 -78 0
-14 -12 -76 0
-14 -15 -77 0
-14 -18 -78 0
-17 -21 -76 0
-17 -24 -77 0
-17 -27 -78 0
-20 -3 -79 0
-20 -6 -80 0
-20 -9 -81 0
-23 -12 -79 0
-23 -15 -80 0
-23 -18 -81 0
-26 -21 -79 0
-26 -24 -80 0
-26 -27 -81 0
-3 -1 -82 0
-3 -4 -83 0
-3 -7 -84 0
-6 -10 -82 0
-6 -13 -83 0
-6 -16 -84 0
-9 -19 -82 0
-9 -22 -83 0
-9 -25 -84 0
-12 -1 -85 0
-12 -4 -86 0
-12 -7 -87 0
-15 -10 -85 0
-15 -13 -86 0
-15 -16 -87 0
-18 -19 -85 0
-18 -22 -86 0
-18 -25 -87 0
-21 -1 -88 0
-21 -4 -89 0
-21 -7 -90 0
-24 -10 -88 0
-24 -13 -89 0
-24 -16 -90 0
-27 -19 -88 0
-27 -22 -89 0
-27 -25 -90 0
-3 -2 -91 0
-3 -5 -92 0
-3 -8 -93 0
-6 -11 -91 0
-6 -14 -92 0
-6 -17 -93 0
-9 -20 -91 0
-9 -23 -92 0
-9 -26 -93 0
-12 -2 -94 0
-12 -5 -95 0
-12 -8 -96 0
-15 -11 -94 0
-15 -14 -95 0
-15 -17 -96 0
-18 -20 -94 0
-18 -23 -95 0
-18 -26 -96 0
-21 -2 -97 0
-21 -5 -98 0
-21 -8 -99 0
-24 -11 -97 0
-24 -14 -98 0
-24 -17 -99 0
-27 -20 -97 0
-27 -23 -98 0
-27 -26 -99 0
-3 -3 -100 0
-3 -6 -101 0
-3 -9 -102 0
-6 -12 -100 0
-6 -15 -101 0
-6 -18 -102 0
-9 -21 -100 0
-9 -24 -101 0
-9 -27 -102 0
-12 -3 -103 0
-12 -6 -104 0
-12 -9 -105 0
-15 -12 -103 0
-15 -15 -104 0
-15 -18 -105 0
-18 -21 -103 0
-18 -24 -104 0
-18 -27 -105 0
-21 -3 -106 0
-21 -6 -107 0
-21 -9 -108 0
-24 -12 -106 0
-24 -15 -107 0
-24 -18 -108 0
-27 -21 -106 0
-27 -24 -107 0
-27 -27 -108 0
1 2 3 0
-1 -2 0
-1 -3 0
-2 -3 0
4 5 6 0
-4 -5 0
-4 -6 0
-5 -6 0
7 8 9 0
-7 -8 0
-7 -9 0
-8 -9 0
10 11 12 0
-10 -11 0
-10 -12 0
-11 -12 0
13 14 15 0
-13 -14 0
-13 -15 0
-14 -15 0
16 17 18 0
-16 -17 0
-16 -18 0
-17 -18 0
19 20 21 0
-19 -20 0
-19 -21 0
-20 -21 0
22 23 24 0
-22 -23 0
-22 -24 0
-23 -24 0
25 26 27 0
-25 -26 0
-25 -27 0
-26 -27 0
-899 -1 25 26 0
-899 -2 26 0
-899 -3 0
-900 -1 27 0
-900 -2 25 0
-900 -3 26 0
899 900 0
899 901 0
-901 902 903 0
-901 902 904 0
-904 905 906 0
-904 905 907 0
-907 908 909 0
-907 908 910 0
-910 911 912 0
-910 911 913 0
-913 914 915 0
-913 914 916 0
-916 917 918 0
-916 917 919 0
-919 920 921 0
-919 920 922 0
-922 923 924 0
-902 -4 19 20 0
-902 -5 20 0
-902 -6 0
-903 -4 21 0
-903 -5 19 0
-903 -6 20 0
899 900 0
899 901 0
-901 902 903 0
-901 902 904 0
-904 905 906 0
-904 905 907 0
-907 908 909 0
-907 908 910 0
-910 911 912 0
-910 911 913 0
-913 914 915 0
-913 914 916 0
-916 917 918 0
-916 917 919 0
-919 920 921 0
-919 920 922 0
-922 923 924 0
-905 -7 22 23 0
-905 -8 23 0
-905 -9 0
-906 -7 24 0
-906 -8 22 0
-906 -9 23 0
899 900 0
899 901 0
-901 902 903 0
-901 902 904 0
-904 905 906 0
-904 905 907 0
-907 908 909 0
-907 908 910 0
-910 911 912 0
-910 911 913 0
-913 914 915 0
-913 914 916 0
-916 917 918 0
-916 917 919 0
-919 920 921 0
-919 920 922 0
-922 923 924 0
-908 -10 7 8 0
-908 -11 8 0
-908 -12 0
-909 -10 9 0
-909 -11 7 0
-909 -12 8 0
899 900 0
899 901 0
-901 902 903 0
-901 902 904 0
-904 905 906 0
-904 905 907 0
-907 908 909 0
-907 908 910 0
-910 911 912 0
-910 911 913 0
-913 914 915 0
-913 914 916 0
-916 917 918 0
-916 917 919 0
-919 920 921 0
-919 920 922 0
-922 923 924 0
-911 -13 1 2 0
-911 -14 2 0
-911 -15 0
-912 -13 3 0
-912 -14 1 0
-912 -15 2 0
899 900 0
899 901 0
-901 902 903 0
-901 902 904 0
-904 905 906 0
-904 905 907 0
-907 908 909 0
-907 908 910 0
-910 911 912 0
-910 911 913 0
-913 914 915 0
-913 914 916 0
-916 917 918 0
-916 917 919 0
-919 920 921 0
-919 920 922 0
-922 923 924 0
-914 -16 4 5 0
-914 -17 5 0
-914 -18 0
-915 -16 6 0
-915 -17 4 0
-915 -18 5 0
899 900 0
899 901 0
-901 902 903 0
-901 902 904 0
-904 905 906 0
-904 905 907 0
-907 908 909 0
-907 908 910 0
-910 911 912 0
-910 911 913 0
-913 914 915 0
-913 914 916 0
-916 917 918 0
-916 917 919 0
-919 920 921 0
-919 920 922 0
-922 923 924 0
-917 -19 16 17 0
-917 -20 17 0
-917 -21 0
-918 -19 18 0
-918 -20 16 0
-918 -21 17 0
899 900 0
899 901 0
-901 902 903 0
-901 902 904 0
-904 905 906 0
-904 905 907 0
-907 908 909 0
-907 908 910 0
-910 911 912 0
-910 911 913 0
-913 914 915 0
-913 914 916 0
-916 917 918 0
-916 917 919 0
-919 920 921 0
-919 920 922 0
-922 923 924 0
-920 -22 10 11 0
-920 -23 11 0
-920 -24 0
-921 -22 12 0
-921 -23 10 0
-921 -24 11 0
899 900 0
899 901 0
-901 902 903 0
-901 902 904 0
-904 905 906 0
-904 905 907 0
-907 908 909 0
-907 908 910 0
-910 911 912 0
-910 911 913 0
-913 914 915 0
-913 914 916 0
-916 917 918 0
-916 917 919 0
-919 920 921 0
-919 920 922 0
-922 923 924 0
-923 -25 13 14 0
-923 -26 14 0
-923 -27 0
-924 -25 15 0
-924 -26 13 0
-924 -27 14 0
899 900 0
899 901 0
-901 902 903 0
-901 902 904 0
-904 905 906 0
-904 905 907 0
-907 908 909 0
-907 908 910 0
-910 911 912 0
-910 911 913 0
-913 914 915 0
-913 914 916 0
-916 917 918 0
-916 917 919 0
-919 920 921 0
-919 920 922 0
-922 923 924 0
-925 2 0
-926 1 0
925 926 0
925 927 0
-927 928 929 0
-927 928 930 0
-930 931 932 0
-930 931 933 0
-933 934 935 0
-933 934 936 0
-936 937 938 0
-936 937 939 0
-939 940 941 0
-939 940 942 0
-942 943 944 0
-942 943 945 0
-945 946 947 0
-945 946 948 0
-948 949 950 0
-928 -4 8 9 0
-928 -5 8 0
-928 -6 0
-929 -4 7 0
-929 -5 9 0
-929 -6 8 0
925 926 0
925 927 0
-927 928 929 0
-927 928 930 0
-930 931 932 0
-930 931 933 0
-933 934 935 0
-933 934 936 0
-936 937 938 0
-936 937 939 0
-939 940 941 0
-939 940 942 0
-942 943 944 0
-942 943 945 0
-945 946 947 0
-945 946 948 0
-948 949 950 0
-931 -7 5 6 0
-931 -8 5 0
-931 -9 0
-932 -7 4 0
-932 -8 6 0
-932 -9 5 0
925 926 0
925 927 0
-927 928 929 0
-927 928 930 0
-930 931 932 0
-930 931 933 0
-933 934 935 0
-933 934 936 0
-936 937 938 0
-936 937 939 0
-939 940 941 0
-939 940 942 0
-942 943 944 0
-942 943 945 0
-945 946 947 0
-945 946 948 0
-948 949 950 0
-934 -10 20 21 0
-934 -11 20 0
-934 -12 0
-935 -10 19 0
-935 -11 21 0
-935 -12 20 0
925 926 0
925 927 0
-927 928 929 0
-927 928 930 0
-930 931 932 0
-930 931 933 0
-933 934 935 0
-933 934 936 0
-936 937 938 0
-936 937 939 0
-939 940 941 0
-939 940 942 0
-942 943 944 0
-942 943 945 0
-945 946 947 0
-945 946 948 0
-948 949 950 0
-937 -13 26 27 0
-937 -14 26 0
-937 -15 0
-938 -13 25 0
-938 -14 27 0
-938 -15 26 0
925 926 0
925 927 0
-927 928 929 0
-927 928 930 0
-930 931 932 0
-930 931 933 0
-933 934 935 0
-933 934 936 0
-936 937 938 0
-936 937 939 0
-939 940 941 0
-939 940 942 0
-942 943 944 0
-942 943 945 0
-945 946 947 0
-945 946 948 0
-948 949 950 0
-940 -16 23 24 0
-940 -17 23 0
-940 -18 0
-941 -16 22 0
-941 -17 24 0
-941 -18 23 0
925 926 0
925 927 0
-927 928 929 0
-927 928 930 0
-930 931 932 0
-930 931 933 0
-933 934 935 0
-933 934 936 0
-936 937 938 0
-936 937 939 0
-939 940 941 0
-939 940 942 0
-942 943 944 0
-942 943 945 0
-945 946 947 0
-945 946 948 0
-948 949 950 0
-943 -19 11 12 0
-943 -20 11 0
-943 -21 0
-944 -19 10 0
-944 -20 12 0
-944 -21 11 0
925 926 0
925 927 0
-927 928 929 0
-927 928 930 0
-930 931 932 0
-930 931 933 0
-933 934 935 0
-933 934 936 0
-936 937 938 0
-936 937 939 0
-939 940 941 0
-939 940 942 0
-942 943 944 0
-942 943 945 0
-945 946 947 0
-945 946 948 0
-948 949 950 0
-946 -22 17 18 0
-946 -23 17 0
-946 -24 0
-947 -22 16 0
-947 -23 18 0
-947 -24 17 0
925 926 0
925 927 0
-927 928 929 0
-927 928 930 0
-930 931 932 0
-930 931 933 0
-933 934 935 0
-933 934 936 0
-936 937 938 0
-936 937 939 0
-939 940 941 0
-939 940 942 0
-942 943 944 0
-942 943 945 0
-945 946 947 0
-945 946 948 0
-948 949 950 0
-949 -25 14 15 0
-949 -26 14 0
-949 -27 0
-950 -25 13 0
-950 -26 15 0
-950 -27 14 0
925 926 0
925 927 0
-927 928 929 0
-927 928 930 0
-930 931 932 0
-930 931 933 0
-933 934 935 0
-933 934 936 0
-936 937 938 0
-936 937 939 0
-939 940 941 0
-939 940 942 0
-942 943 944 0
-942 943 945 0
-945 946 947 0
-945 946 948 0
-948 949 950 0
-951 -1 13 15 0
-951 -2 15 0
-951 -3 0
-952 -1 14 0
-952 -2 13 0
-952 -3 15 0
951 952 0
951 953 0
-953 954 955 0
-953 954 956 0
-956 957 958 0
-956 957 959 0
-959 960 961 0
-959 960 962 0
-962 963 964 0
-962 963 965 0
-965 966 967 0
-965 966 968 0
-968 969 970 0
-968 969 971 0
-971 972 973 0
-971 972 974 0
-974 975 976 0
-954 -4 10 12 0
-954 -5 12 0
-954 -6 0
-955 -4 11 0
-955 -5 10 0
-955 -6 12 0
951 952 0
951 953 0
-953 954 955 0
-953 954 956 0
-956 957 958 0
-956 957 959 0
-959 960 961 0
-959 960 962 0
-962 963 964 0
-962 963 965 0
-965 966 967 0
-965 966 968 0
-968 969 970 0
-968 969 971 0
-971 972 973 0
-971 972 974 0
-974 975 976 0
-957 -7 16 18 0
-957 -8 18 0
-957 -9 0
-958 -7 17 0
-958 -8 16 0
-958 -9 18 0
951 952 0
951 953 0
-953 954 955 0
-953 954 956 0
-956 957 958 0
-956 957 959 0
-959 960 961 0
-959 960 962 0
-962 963 964 0
-962 963 965 0
-965 966 967 0
-965 966 968 0
-968 969 970 0
-968 969 971 0
-971 972 973 0
-971 972 974 0
-974 975 976 0
-960 -10 4 6 0
-960 -11 6 0
-960 -12 0
-961 -10 5 0
-961 -11 4 0
-961 -12 6 0
951 952 0
951 953 0
-953 954 955 0
-953 954 956 0
-956 957 958 0
-956 957 959 0
-959 960 961 0
-959 960 962 0
-962 963 964 0
-962 963 965 0
-965 966 967 0
-965 966 968 0
-968 969 970 0
-968 969 971 0
-971 972 973 0
-971 972 974 0
-974 975 976 0
-963 -13 1 3 0
-963 -14 3 0
-963 -15 0
-964 -13 2 0
-964 -14 1 0
-964 -15 3 0
951 952 0
951 953 0
-953 954 955 0
-953 954 956 0
-956 957 958 0
-956 957 959 0
-959 960 961 0
-959 960 962 0
-962 963 964 0
-962 963 965 0
-965 966 967 0
-965 966 968 0
-968 969 970 0
-968 969 971 0
-971 972 973 0
-971 972 974 0
-974 975 976 0
-966 -16 7 9 0
-966 -17 9 0
-966 -18 0
-967 -16 8 0
-967 -17 7 0
-967 -18 9 0
951 952 0
951 953 0
-953 954 955 0
-953 954 956 0
-956 957 958 0
-956 957 959 0
-959 960 961 0
-959 960 962 0
-962 963 964 0
-962 963 965 0
-965 966 967 0
-965 966 968 0
-968 969 970 0
-968 969 971 0
-971 972 973 0
-971 972 974 0
-974 975 976 0
-969 -19 22 24 0
-969 -20 24 0
-969 -21 0
-970 -19 23 0
-970 -20 22 0
-970 -21 24 0
951 952 0
951 953 0
-953 954 955 0
-953 954 956 0
-956 957 958 0
-956 957 959 0
-959 960 961 0
-959 960 962 0
-962 963 964 0
-962 963 965 0
-965 966 967 0
-965 966 968 0
-968 969 970 0
-968 969 971 0
-971 972 973 0
-971 972 974 0
-974 975 976 0
-972 -22 19 21 0
-972 -23 21 0
-972 -24 0
-973 -22 20 0
-973 -23 19 0
-973 -24 21 0
951 952 0
951 953 0
-953 954 955 0
-953 954 956 0
-956 957 958 0
-956 957 959 0
-959 960 961 0
-959 960 962 0
-962 963 964 0
-962 963 965 0
-965 966 967 0
-965 966 968 0
-968 969 970 0
-968 969 971 0
-971 972 973 0
-971 972 974 0
-974 975 976 0
-975 25 0
-976 27 0
951 952 0
951 953 0
-953 954 955 0
-953 954 956 0
-956 957 958 0
-956 957 959 0
-959 960 961 0
-959 960 962 0
-962 963 964 0
-962 963 965 0
-965 966 967 0
-965 966 968 0
-968 969 970 0
-968 969 971 0
-971 972 973 0
-971 972 974 0
-974 975 976 0
